nBusiness = 46;
nMeetings = 184;
nTables = 21;
nTotalSlots = 10;
nMorningSlots = 10;

requested = [|1, 14,3, 
|1, 15,3, 
|1, 16,3, 
|1, 18,3, 
|1, 24,3, 
|1, 42,3, 
|2, 22,3, 
|2, 25,3, 
|2, 37,3, 
|2, 40,3, 
|3, 4,3, 
|3, 31,3, 
|3, 35,3, 
|3, 38,3, 
|5, 30,3, 
|5, 35,3, 
|5, 42,3, 
|6, 7,3, 
|6, 15,3, 
|6, 16,3, 
|6, 21,3, 
|6, 28,3, 
|6, 33,3, 
|7, 21,3, 
|7, 25,3, 
|7, 27,3, 
|7, 36,3, 
|7, 37,3, 
|7, 40,3, 
|7, 42,3, 
|8, 2,3, 
|8, 3,3, 
|8, 9,3, 
|8, 20,3, 
|8, 22,3, 
|8, 25,3, 
|8, 36,3, 
|8, 38,3, 
|8, 40,3, 
|9, 5,3, 
|9, 10,3, 
|10, 3,3, 
|10, 6,3, 
|10, 13,3, 
|10, 24,3, 
|10, 25,3, 
|10, 36,3, 
|10, 37,3, 
|12, 6,3, 
|12, 14,3, 
|12, 26,3, 
|12, 35,3, 
|12, 36,3, 
|12, 37,3, 
|12, 38,3, 
|12, 40,3, 
|13, 5,3, 
|13, 6,3, 
|13, 12,3, 
|13, 31,3, 
|13, 36,3, 
|13, 41,3, 
|13, 42,3, 
|14, 11,3, 
|14, 15,3, 
|14, 28,3, 
|14, 31,3, 
|14, 41,3, 
|15, 16,3, 
|15, 31,3, 
|15, 33,3, 
|17, 18,3, 
|17, 21,3, 
|17, 23,3, 
|17, 31,3, 
|17, 32,3, 
|17, 33,3, 
|17, 34,3, 
|17, 40,3, 
|17, 41,3, 
|17, 42,3, 
|19, 18,3, 
|19, 31,3, 
|19, 33,3, 
|19, 38,3, 
|20, 1,3, 
|20, 9,3, 
|20, 16,3, 
|20, 18,3, 
|20, 19,3, 
|20, 22,3, 
|20, 30,3, 
|21, 5,3, 
|21, 36,3, 
|21, 42,3, 
|22, 4,3, 
|22, 25,3, 
|22, 36,3, 
|22, 40,3, 
|22, 41,3, 
|22, 42,3, 
|25, 4,3, 
|26, 3,3, 
|26, 4,3, 
|26, 20,3, 
|26, 25,3, 
|26, 28,3, 
|26, 30,3, 
|26, 41,3, 
|27, 13,3, 
|27, 14,3, 
|27, 15,3, 
|27, 16,3, 
|27, 18,3, 
|27, 19,3, 
|28, 2,3, 
|28, 11,3, 
|28, 16,3, 
|29, 15,3, 
|29, 25,3, 
|29, 27,3, 
|29, 30,3, 
|29, 33,3, 
|29, 35,3, 
|29, 36,3, 
|29, 41,3, 
|29, 42,3, 
|30, 1,3, 
|30, 6,3, 
|30, 10,3, 
|30, 13,3, 
|30, 32,3, 
|30, 34,3, 
|31, 11,3, 
|32, 1,3, 
|32, 9,3, 
|32, 10,3, 
|32, 12,3, 
|32, 20,3, 
|32, 26,3, 
|32, 37,3, 
|32, 38,3, 
|33, 27,3, 
|33, 36,3, 
|34, 26,3, 
|34, 27,3, 
|34, 28,3, 
|34, 35,3, 
|34, 41,3, 
|34, 42,3, 
|37, 3,3, 
|37, 18,3, 
|37, 19,3, 
|40, 3,3, 
|40, 28,3, 
|40, 38,3, 
|41, 28,3, 
|43, 15,3, 
|43, 28,3, 
|43, 36,3, 
|43, 37,3, 
|43, 38,3, 
|43, 41,3, 
|44, 1,3, 
|44, 2,3, 
|44, 14,3, 
|44, 16,3, 
|44, 19,3, 
|44, 22,3, 
|44, 25,3, 
|44, 34,3, 
|44, 40,3, 
|44, 41,3, 
|45, 3,3, 
|45, 11,3, 
|45, 15,3, 
|45, 16,3, 
|45, 31,3, 
|45, 33,3, 
|46, 2,3, 
|46, 8,3, 
|46, 11,3, 
|46, 21,3, 
|46, 42,3, 
|];

meetingsxBusiness = [{1,2,3,4,5,6,7,87,129,136,165},
{1,8,9,10,11,32,117,166,181},
{1,12,13,14,15,33,43,104,152,155,175},
{1,12,97,103,105},
{1,16,17,18,41,58,94},
{1,19,20,21,22,23,24,44,50,59,130},
{1,19,25,26,27,28,29,30,31},
{1,32,33,34,35,36,37,38,39,40,182},
{1,34,41,42,88,137},
{1,42,43,44,45,46,47,48,49,131,138},
{1,65,118,135,176,183},
{1,50,51,52,53,54,55,56,57,60,139},
{1,45,58,59,60,61,62,63,64,111,132},
{1,2,51,65,66,67,68,69,112,167},
{1,3,20,66,70,71,72,113,120,159,177},
{1,4,21,70,89,114,119,168,178},
{1,73,74,75,76,77,78,79,80,81,82},
{1,5,73,83,90,115,153},
{1,83,84,85,86,91,116,154,169},
{1,35,87,88,89,90,91,92,93,106,140},
{1,22,25,74,94,95,96,184},
{1,8,36,92,97,98,99,100,101,102,170},
{1,75},
{1,6,46},
{1,9,26,37,47,98,103,107,121,171},
{1,52,104,105,106,107,108,109,110,141,146},
{1,27,111,112,113,114,115,116,122,144,147},
{1,23,67,108,117,118,119,148,156,158,160},
{1,120,121,122,123,124,125,126,127,128},
{1,16,93,109,123,129,130,131,132,133,134},
{1,13,61,68,71,76,84,135,179},
{1,77,133,136,137,138,139,140,141,142,143},
{1,24,72,78,85,124,144,145,180},
{1,79,134,146,147,148,149,150,151,172},
{1,14,17,53,125,149},
{1,28,38,48,54,62,95,99,126,145,161},
{1,10,29,49,55,142,152,153,154,162},
{1,15,39,56,86,143,157,163},
{1},
{1,11,30,40,57,80,100,155,156,157,173},
{1,63,69,81,101,110,127,150,158,164,174},
{1,7,18,31,64,82,96,102,128,151,185},
{1,159,160,161,162,163,164},
{1,165,166,167,168,169,170,171,172,173,174},
{1,175,176,177,178,179,180},
{1,181,182,183,184,185}];

nMeetingsBusiness = [10,8,10,4,6,10,8,10,5,10,5,10,10,9,10,8,10,6,8,10,7,10,1,2,9,10,10,10,9,10,8,10,8,9,5,10,9,7,0,10,10,10,6,10,6,5];

forbidden = [{0},
{0},
{0},
{0},
{0},
{0},
{0},
{0},
{0},
{0},
{0},
{0},
{0},
{0},
{0},
{0},
{0},
{0},
{0},
{0},
{0},
{0},
{0},
{0},
{0},
{0},
{0},
{0},
{0},
{0},
{0},
{0},
{0},
{0},
{0},
{0},
{0},
{0},
{0},
{0},
{0},
{0},
{0},
{0},
{0},
{0}];

fixed = [0,0,0,0,0,0,0,0,0,0,0,0,0,0,0,0,0,0,0,0,0,0,0,0,0,0,0,0,0,0,0,0,0,0,0,0,0,0,0,0,0,0,0,0,0,0,0,0,0,0,0,0,0,0,0,0,0,0,0,0,0,0,0,0,0,0,0,0,0,0,0,0,0,0,0,0,0,0,0,0,0,0,0,0,0,0,0,0,0,0,0,0,0,0,0,0,0,0,0,0,0,0,0,0,0,0,0,0,0,0,0,0,0,0,0,0,0,0,0,0,0,0,0,0,0,0,0,0,0,0,0,0,0,0,0,0,0,0,0,0,0,0,0,0,0,0,0,0,0,0,0,0,0,0,0,0,0,0,0,0,0,0,0,0,0,0,0,0,0,0,0,0,0,0,0,0,0,0,0,0,0,0,0,0];

precedences = [{},
{158},
{},
{},
{},
{86},
{},
{},
{},
{8},
{},
{11,178},
{},
{},
{},
{},
{},
{129},
{},
{177},
{},
{},
{},
{},
{},
{},
{},
{18},
{},
{95},
{},
{},
{},
{31},
{},
{},
{},
{},
{},
{},
{130},
{},
{},
{},
{},
{},
{},
{},
{},
{},
{53},
{},
{},
{},
{},
{},
{},
{},
{},
{62},
{},
{109},
{},
{},
{},
{65},
{},
{},
{},
{},
{},
{},
{},
{},
{},
{},
{},
{},
{80},
{},
{},
{},
{},
{85},
{},
{139},
{},
{},
{},
{},
{},
{},
{183},
{47},
{},
{},
{99},
{},
{},
{},
{},
{},
{},
{51},
{},
{8},
{},
{},
{},
{},
{},
{},
{},
{},
{113},
{},
{},
{},
{},
{},
{},
{},
{},
{},
{},
{122},
{},
{},
{},
{},
{},
{130},
{},
{},
{},
{},
{140},
{},
{},
{},
{},
{162},
{},
{23},
{},
{},
{107,146},
{},
{},
{},
{},
{},
{54},
{},
{},
{154},
{},
{},
{},
{},
{},
{},
{},
{167},
{},
{},
{},
{},
{},
{},
{},
{},
{},
{},
{},
{},
{},
{},
{},
{},
{},
{},
{},
{}];

